benchmarks_CP/INST_36x36/45/inst36x36_45_84.dzn
S=6;
start=[|
9,	35,	18,	-1,	-1,	33,	22,	-1,	5,	-1,	-1,	27,	-1,	-1,	-1,	23,	16,	-1,	11,	-1,	-1,	-1,	-1,	-1,	8,	-1,	-1,	-1,	-1,	19,	3,	-1,	-1,	20,	-1,	-1|
36,	-1,	16,	-1,	-1,	-1,	23,	-1,	7,	-1,	-1,	-1,	-1,	-1,	-1,	27,	-1,	12,	-1,	-1,	5,	9,	-1,	22,	17,	-1,	29,	30,	2,	-1,	-1,	-1,	24,	-1,	-1,	25|
-1,	30,	-1,	-1,	-1,	-1,	4,	16,	13,	19,	26,	-1,	1,	-1,	-1,	-1,	-1,	20,	-1,	-1,	35,	-1,	-1,	-1,	-1,	-1,	18,	-1,	-1,	-1,	-1,	-1,	7,	-1,	28,	21|
31,	-1,	-1,	-1,	19,	17,	-1,	-1,	30,	-1,	-1,	20,	-1,	7,	5,	-1,	14,	-1,	-1,	10,	27,	8,	-1,	15,	21,	12,	-1,	-1,	-1,	9,	-1,	-1,	35,	34,	-1,	4|
-1,	-1,	5,	-1,	32,	-1,	18,	1,	-1,	-1,	14,	35,	17,	25,	-1,	-1,	22,	34,	-1,	-1,	-1,	3,	-1,	-1,	15,	13,	-1,	-1,	11,	-1,	-1,	-1,	31,	-1,	-1,	-1|
-1,	25,	-1,	-1,	13,	34,	3,	-1,	-1,	-1,	36,	-1,	30,	28,	-1,	19,	-1,	-1,	20,	-1,	18,	-1,	-1,	24,	5,	14,	-1,	26,	-1,	-1,	17,	-1,	-1,	-1,	-1,	-1|
-1,	-1,	36,	-1,	11,	-1,	-1,	-1,	23,	-1,	2,	-1,	16,	-1,	34,	-1,	5,	-1,	10,	9,	-1,	6,	-1,	1,	-1,	21,	-1,	-1,	27,	-1,	-1,	-1,	-1,	-1,	-1,	20|
-1,	-1,	-1,	29,	-1,	-1,	13,	31,	-1,	27,	-1,	-1,	-1,	9,	-1,	-1,	30,	25,	-1,	7,	3,	19,	-1,	-1,	16,	8,	15,	-1,	32,	-1,	10,	4,	26,	23,	5,	-1|
-1,	-1,	-1,	-1,	9,	-1,	-1,	-1,	-1,	35,	25,	-1,	-1,	12,	-1,	10,	26,	-1,	30,	21,	-1,	32,	-1,	-1,	-1,	-1,	23,	5,	-1,	-1,	-1,	3,	34,	-1,	-1,	31|
-1,	-1,	-1,	6,	-1,	5,	-1,	-1,	8,	-1,	-1,	-1,	-1,	-1,	4,	-1,	20,	-1,	-1,	22,	-1,	35,	14,	17,	-1,	11,	-1,	36,	10,	24,	-1,	-1,	33,	-1,	25,	-1|
-1,	8,	-1,	30,	23,	32,	-1,	22,	9,	20,	33,	34,	-1,	27,	3,	-1,	-1,	-1,	2,	-1,	-1,	26,	-1,	5,	-1,	-1,	-1,	-1,	-1,	-1,	35,	-1,	1,	21,	-1,	6|
-1,	-1,	-1,	-1,	35,	15,	-1,	26,	-1,	16,	-1,	-1,	23,	-1,	-1,	22,	33,	21,	25,	27,	-1,	36,	-1,	13,	34,	30,	-1,	-1,	-1,	-1,	-1,	-1,	-1,	-1,	32,	12|
32,	15,	22,	-1,	1,	21,	-1,	-1,	-1,	28,	29,	-1,	-1,	-1,	-1,	-1,	-1,	-1,	18,	-1,	26,	-1,	34,	-1,	7,	9,	10,	-1,	-1,	36,	-1,	-1,	2,	24,	20,	-1|
-1,	-1,	13,	4,	17,	-1,	-1,	35,	-1,	-1,	-1,	-1,	6,	23,	26,	-1,	-1,	-1,	36,	-1,	-1,	28,	-1,	-1,	-1,	-1,	-1,	-1,	-1,	15,	32,	-1,	-1,	-1,	-1,	-1|
-1,	23,	-1,	-1,	-1,	30,	34,	7,	2,	22,	-1,	-1,	-1,	21,	1,	35,	-1,	-1,	9,	20,	17,	-1,	-1,	6,	-1,	28,	19,	-1,	-1,	-1,	18,	-1,	11,	-1,	-1,	-1|
18,	6,	25,	5,	-1,	26,	32,	30,	20,	-1,	24,	-1,	12,	-1,	-1,	-1,	19,	16,	23,	-1,	-1,	1,	13,	-1,	4,	-1,	-1,	-1,	17,	-1,	-1,	-1,	15,	-1,	14,	-1|
7,	20,	35,	8,	-1,	24,	-1,	-1,	26,	-1,	-1,	-1,	3,	-1,	27,	-1,	-1,	18,	-1,	-1,	-1,	-1,	4,	25,	30,	-1,	-1,	11,	-1,	32,	-1,	-1,	36,	1,	10,	-1|
11,	-1,	9,	-1,	-1,	-1,	5,	-1,	-1,	18,	-1,	-1,	-1,	-1,	-1,	28,	-1,	17,	-1,	8,	15,	-1,	10,	30,	1,	26,	-1,	34,	-1,	-1,	-1,	13,	-1,	35,	-1,	-1|
-1,	-1,	30,	-1,	-1,	4,	-1,	17,	-1,	-1,	-1,	-1,	-1,	19,	-1,	12,	-1,	-1,	-1,	-1,	-1,	-1,	-1,	-1,	11,	-1,	-1,	-1,	-1,	-1,	-1,	1,	28,	6,	21,	32|
17,	13,	7,	16,	-1,	8,	33,	-1,	29,	-1,	1,	-1,	-1,	-1,	11,	-1,	36,	-1,	-1,	-1,	-1,	4,	-1,	-1,	-1,	5,	25,	15,	-1,	-1,	-1,	-1,	22,	-1,	35,	-1|
-1,	-1,	-1,	-1,	15,	9,	-1,	-1,	22,	-1,	-1,	-1,	10,	17,	-1,	-1,	-1,	4,	-1,	13,	8,	18,	19,	35,	6,	29,	7,	12,	33,	-1,	-1,	24,	-1,	-1,	-1,	-1|
-1,	-1,	10,	-1,	-1,	-1,	-1,	-1,	15,	-1,	-1,	-1,	-1,	30,	-1,	-1,	-1,	5,	33,	-1,	22,	-1,	-1,	34,	23,	-1,	24,	2,	3,	-1,	8,	17,	-1,	-1,	-1,	18|
-1,	22,	-1,	24,	12,	-1,	11,	23,	32,	25,	-1,	-1,	8,	18,	-1,	9,	-1,	-1,	5,	30,	-1,	-1,	17,	-1,	-1,	-1,	35,	10,	-1,	13,	33,	-1,	-1,	2,	-1,	29|
-1,	29,	-1,	11,	25,	-1,	-1,	-1,	35,	-1,	-1,	6,	28,	-1,	-1,	16,	-1,	26,	-1,	1,	-1,	-1,	-1,	10,	31,	32,	17,	8,	-1,	-1,	-1,	19,	-1,	-1,	-1,	34|
-1,	-1,	-1,	9,	20,	-1,	29,	18,	-1,	12,	-1,	8,	-1,	34,	13,	17,	-1,	-1,	22,	36,	-1,	11,	5,	-1,	-1,	-1,	-1,	14,	-1,	-1,	-1,	-1,	-1,	-1,	31,	-1|
-1,	-1,	11,	22,	-1,	36,	-1,	9,	-1,	14,	-1,	-1,	20,	10,	32,	8,	-1,	-1,	-1,	33,	13,	12,	-1,	-1,	28,	25,	-1,	-1,	-1,	-1,	-1,	-1,	6,	15,	7,	-1|
15,	16,	8,	-1,	29,	7,	35,	25,	19,	23,	-1,	-1,	26,	14,	-1,	-1,	-1,	27,	31,	28,	-1,	-1,	6,	-1,	13,	10,	11,	-1,	-1,	4,	-1,	-1,	-1,	-1,	-1,	-1|
-1,	12,	32,	-1,	-1,	27,	28,	13,	-1,	4,	21,	22,	31,	11,	-1,	-1,	7,	15,	-1,	14,	-1,	-1,	20,	-1,	9,	-1,	3,	-1,	-1,	-1,	-1,	-1,	-1,	-1,	-1,	-1|
3,	-1,	34,	23,	21,	18,	-1,	-1,	-1,	-1,	-1,	-1,	-1,	-1,	19,	30,	-1,	36,	8,	4,	32,	17,	-1,	-1,	-1,	-1,	-1,	7,	35,	-1,	-1,	-1,	13,	-1,	2,	-1|
30,	26,	24,	-1,	6,	13,	-1,	36,	-1,	11,	5,	32,	33,	2,	-1,	25,	23,	-1,	35,	-1,	10,	-1,	15,	-1,	12,	-1,	-1,	17,	8,	-1,	1,	20,	-1,	4,	-1,	28|
12,	-1,	27,	-1,	-1,	-1,	26,	-1,	-1,	-1,	-1,	-1,	2,	-1,	-1,	-1,	32,	19,	13,	5,	-1,	-1,	33,	11,	-1,	15,	21,	-1,	22,	-1,	20,	-1,	8,	36,	17,	-1|
-1,	9,	-1,	-1,	-1,	1,	20,	12,	27,	17,	35,	15,	-1,	-1,	10,	-1,	21,	3,	-1,	-1,	34,	30,	8,	-1,	-1,	-1,	33,	-1,	-1,	11,	-1,	28,	32,	-1,	6,	19|
5,	32,	-1,	18,	16,	25,	-1,	-1,	-1,	36,	8,	-1,	-1,	-1,	-1,	13,	12,	23,	28,	-1,	-1,	-1,	1,	-1,	29,	24,	30,	-1,	-1,	-1,	-1,	-1,	-1,	-1,	34,	-1|
34,	-1,	-1,	-1,	-1,	19,	-1,	-1,	-1,	-1,	22,	-1,	-1,	-1,	-1,	26,	-1,	-1,	15,	25,	9,	-1,	-1,	32,	10,	-1,	-1,	-1,	-1,	-1,	-1,	33,	23,	-1,	-1,	27|
8,	33,	20,	-1,	-1,	11,	9,	-1,	-1,	-1,	23,	-1,	25,	-1,	15,	31,	-1,	-1,	-1,	-1,	14,	-1,	22,	-1,	27,	6,	-1,	18,	-1,	-1,	21,	12,	29,	-1,	-1,	7|
-1,	10,	-1,	-1,	3,	-1,	16,	-1,	21,	-1,	7,	-1,	-1,	-1,	9,	20,	17,	-1,	29,	26,	19,	27,	35,	2,	32,	-1,	-1,	-1,	-1,	-1,	31,	5,	25,	-1,	24,	-1|];
